29 31 30 32 33 34 35 36 37 38 40 41 39 42 43 44 45 46 47 48 49 54 52 50 51 84 82 57 83 53 55 56 58 59 81 80 79 61 60 63 62 78 77 88 89 94 93 90 87 86 85 92 91 555 556 557 558 559 550 551 101 552 553 554 97 95 96 98 99 100 102 103 104 105 106 118 121 120 119 73 74 75 76 64 65 66 67 68 69 70 71 72 123 122 117 124 125 126 127 128 116 115 114 112 113 131 132 133 134 135 136 137 130 129 138 139 140 141 151 150 149 152 148 147 146 142 143 144 145 158 157 153 154 155 156 159 160 161 162 168 163 167 166 164 165 203 204 202 201 200 199 198 205 206 207 208 209 210 211 212 213 214 215 216 217 223 224 222 221 220 218 219 193 194 195 196 197 184 185 183 181 179 180 169 171 170 175 174 173 172 111 110 109 108 107 542 541 543 544 547 546 545 548 549 560 561 562 563 564 565 566 475 476 477 478 479 480 481 482 483 485 484 536 537 539 538 540 176 177 178 187 188 182 186 192 191 190 226 225 189 227 228 229 230 231 233 232 234 235 236 528 529 530 531 532 533 489 488 534 535 487 486 490 491 492 493 524 525 526 523 522 521 520 517 516 515 514 527 512 513 511 510 509 237 301 302 508 507 506 307 303 304 306 305 318 317 319 320 321 297 298 299 300 257 256 241 242 244 243 240 239 238 246 247 245 248 249 250 251 252 254 253 255 261 260 259 258 262 263 264 265 266 267 271 272 269 268 270 296 295 294 293 291 292 273 274 275 290 289 288 276 277 278 279 282 281 280 287 286 285 284 283 334 335 336 337 338 339 333 332 331 330 340 341 344 343 342 366 365 368 369 370 367 327 328 329 326 325 324 323 322 372 371 396 373 374 315 314 316 313 312 451 311 310 309 308 505 504 503 502 498 501 500 499 453 452 461 462 463 464 465 496 497 519 518 495 494 472 473 474 471 470 469 468 467 466 460 459 458 457 456 455 454 439 440 441 450 449 448 447 446 442 443 444 445 381 380 379 378 377 376 375 395 394 393 391 392 390 389 388 387 386 385 409 405 406 408 407 397 398 399 400 404 403 402 401 360 359 361 362 363 364 346 345 347 348 350 349 358 357 356 411 412 355 354 353 352 351 415 416 414 413 417 419 418 410 384 383 382 425 424 422 420 421 423 426 427 428 429 431 430 432 433 434 435 436 438 437 3 2 1 4 0 5 573 571 572 6 7 8 9 10 11 14 15 16 17 18 19 570 569 567 568 20 13 12 23 22 21 24 25 26 27 28